100 8
769 558
752 513
755 800
761 645
439 114
351 391
638 200
323 238
797 661
550 372
675 324
688 873
536 733
282 489
299 243
488 208
687 397
280 503
718 339
703 700
129 679
581 912
710 951
670 196
77 789
333 326
275 803
721 952
666 895
613 879
419 92
117 760
323 343
194 754
313 388
692 584
252 797
133 785
764 711
803 604
457 101
847 352
399 543
605 490
336 293
589 582
320 147
417 286
629 72
149 568
667 613
724 739
73 779
646 779
780 867
101 746
255 628
313 169
623 679
300 302
863 337
709 510
806 656
309 457
100 498
653 122
313 381
849 340
389 465
314 436
622 370
658 874
287 368
678 773
564 517
369 203
780 791
285 117
803 719
280 812
304 257
145 540
433 135
646 521
370 382
800 729
700 284
486 181
871 346
427 542
126 540
670 528
757 495
610 879
590 311
700 710
849 634
241 644
536 456
582 745
